# Solution for model micodag
# Objective value = 2.1871215599790407e+01
s_0_1 0
s_1_0 0
s_1_2 0
s_2_1 0
s_1_3 0
s_3_1 3.9365026939684489e-01
s_2_3 0
s_3_2 4.2234882389783968e-01
s_3_4 0
s_4_3 0
s_3_5 0
s_5_3 0
s_3_6 0
s_6_3 2.8453796856078384e-01
s_3_7 0
s_7_3 0
s_3_8 0
s_8_3 4.0439397022652823e-01
s_3_9 0
s_9_3 4.6992875250873611e-01
s_4_5 0
s_5_4 0
s_4_6 0
s_6_4 3.2664680143639035e-01
s_4_7 0
s_7_4 0
s_4_8 0
s_8_4 3.4339500887077135e-01
s_5_6 0
s_6_5 2.8158118527389115e+00
s_5_13 0
s_13_5 2.8158118527389115e+00
s_7_8 0
s_8_7 4.3160635243682854e-01
s_8_12 0
s_12_8 8.2191514800976506e-01
s_10_11 0
s_11_10 3.5779876112833664e-01
s_11_12 0
s_12_11 0
s_11_14 0
s_14_11 0
s_11_16 0
s_16_11 0
s_11_17 0
s_17_11 2.6900950298027970e-01
s_12_14 0
s_14_12 0
s_12_16 0
s_16_12 0
s_12_17 0
s_17_12 4.3512949554960478e-01
s_14_16 0
s_16_14 0
s_14_17 0
s_17_14 3.8017474472409063e-01
s_15_16 0
s_16_15 5.4911143659854034e-01
s_16_17 0
s_17_16 5.4079125345244972e-01
s_0_0 6.5494189601301267e-01
s_1_1 1.9129991536105349e+00
s_2_2 1.1124389191839443e+00
s_3_3 6.0815763442517534e-01
s_4_4 9.6494786064099847e-01
s_5_5 2.8158118527389115e+00
s_6_6 0.756738245152575
s_7_7 6.2276905948088057e-01
s_8_8 0.656880151915308
s_9_9 7.0290982555149517e-01
s_10_10 1.0106333911862864e+00
s_11_11 6.4904623847323206e-01
s_12_12 1.1341092994890014e+00
s_13_13 1.0357944038404605e+00
s_14_14 1.8280118993149834e+00
s_15_15 6.5380019996668315e-01
s_16_16 9.4832656378601210e-01
s_17_17 6.8041896975717009e-01
Gamma_0_0 8.0928480525276958e-01
Gamma_0_1 0
Gamma_0_2 0
Gamma_0_3 0
Gamma_0_4 0
Gamma_0_5 0
Gamma_0_6 0
Gamma_0_7 0
Gamma_0_8 0
Gamma_0_9 0
Gamma_0_10 0
Gamma_0_11 0
Gamma_0_12 0
Gamma_0_13 0
Gamma_0_14 0
Gamma_0_15 0
Gamma_0_16 0
Gamma_0_17 0
Gamma_1_0 0
Gamma_1_1 1.3831121261888115e+00
Gamma_1_2 0
Gamma_1_3 0
Gamma_1_4 0
Gamma_1_5 0
Gamma_1_6 0
Gamma_1_7 0
Gamma_1_8 0
Gamma_1_9 0
Gamma_1_10 0
Gamma_1_11 0
Gamma_1_12 0
Gamma_1_13 0
Gamma_1_14 0
Gamma_1_15 0
Gamma_1_16 0
Gamma_1_17 0
Gamma_2_0 0
Gamma_2_1 0
Gamma_2_2 1.0547222000052641e+00
Gamma_2_3 0
Gamma_2_4 0
Gamma_2_5 0
Gamma_2_6 0
Gamma_2_7 0
Gamma_2_8 0
Gamma_2_9 0
Gamma_2_10 0
Gamma_2_11 0
Gamma_2_12 0
Gamma_2_13 0
Gamma_2_14 0
Gamma_2_15 0
Gamma_2_16 0
Gamma_2_17 0
Gamma_3_0 0
Gamma_3_1 -6.2741554762122786e-01
Gamma_3_2 6.4988370028632036e-01
Gamma_3_3 7.7984462197618287e-01
Gamma_3_4 0
Gamma_3_5 0
Gamma_3_6 0
Gamma_3_7 0
Gamma_3_8 0
Gamma_3_9 0
Gamma_3_10 0
Gamma_3_11 0
Gamma_3_12 0
Gamma_3_13 0
Gamma_3_14 0
Gamma_3_15 0
Gamma_3_16 0
Gamma_3_17 0
Gamma_4_0 0
Gamma_4_1 0
Gamma_4_2 0
Gamma_4_3 0
Gamma_4_4 9.8231759662595808e-01
Gamma_4_5 0
Gamma_4_6 0
Gamma_4_7 0
Gamma_4_8 0
Gamma_4_9 0
Gamma_4_10 0
Gamma_4_11 0
Gamma_4_12 0
Gamma_4_13 0
Gamma_4_14 0
Gamma_4_15 0
Gamma_4_16 0
Gamma_4_17 0
Gamma_5_0 0
Gamma_5_1 0
Gamma_5_2 0
Gamma_5_3 0
Gamma_5_4 0
Gamma_5_5 8.0988795844394879e-01
Gamma_5_6 0
Gamma_5_7 0
Gamma_5_8 0
Gamma_5_9 0
Gamma_5_10 0
Gamma_5_11 0
Gamma_5_12 0
Gamma_5_13 0
Gamma_5_14 0
Gamma_5_15 0
Gamma_5_16 0
Gamma_5_17 0
Gamma_6_0 0
Gamma_6_1 0
Gamma_6_2 0
Gamma_6_3 5.3342100498647815e-01
Gamma_6_4 5.7153022792883923e-01
Gamma_6_5 -4.7826107863423584e-01
Gamma_6_6 8.6990703247679035e-01
Gamma_6_7 0
Gamma_6_8 0
Gamma_6_9 0
Gamma_6_10 0
Gamma_6_11 0
Gamma_6_12 0
Gamma_6_13 0
Gamma_6_14 0
Gamma_6_15 0
Gamma_6_16 0
Gamma_6_17 0
Gamma_7_0 0
Gamma_7_1 0
Gamma_7_2 0
Gamma_7_3 0
Gamma_7_4 0
Gamma_7_5 0
Gamma_7_6 0
Gamma_7_7 0.789157183000244
Gamma_7_8 0
Gamma_7_9 0
Gamma_7_10 0
Gamma_7_11 0
Gamma_7_12 0
Gamma_7_13 0
Gamma_7_14 0
Gamma_7_15 0
Gamma_7_16 0
Gamma_7_17 0
Gamma_8_0 0
Gamma_8_1 0
Gamma_8_2 0
Gamma_8_3 6.3591978285514028e-01
Gamma_8_4 -5.8599915432598693e-01
Gamma_8_5 0
Gamma_8_6 0
Gamma_8_7 -6.5696754290971549e-01
Gamma_8_8 8.1048143218417290e-01
Gamma_8_9 0
Gamma_8_10 0
Gamma_8_11 0
Gamma_8_12 0
Gamma_8_13 0
Gamma_8_14 0
Gamma_8_15 0
Gamma_8_16 0
Gamma_8_17 0
Gamma_9_0 0
Gamma_9_1 0
Gamma_9_2 0
Gamma_9_3 6.8551349549716134e-01
Gamma_9_4 0
Gamma_9_5 0
Gamma_9_6 0
Gamma_9_7 0
Gamma_9_8 0
Gamma_9_9 8.3839717649303636e-01
Gamma_9_10 0
Gamma_9_11 0
Gamma_9_12 0
Gamma_9_13 0
Gamma_9_14 0
Gamma_9_15 0
Gamma_9_16 0
Gamma_9_17 0
Gamma_10_0 0
Gamma_10_1 0
Gamma_10_2 0
Gamma_10_3 0
Gamma_10_4 0
Gamma_10_5 0
Gamma_10_6 0
Gamma_10_7 0
Gamma_10_8 0
Gamma_10_9 0
Gamma_10_10 1.0053026366156046e+00
Gamma_10_11 0
Gamma_10_12 0
Gamma_10_13 0
Gamma_10_14 0
Gamma_10_15 0
Gamma_10_16 0
Gamma_10_17 0
Gamma_11_0 0
Gamma_11_1 0
Gamma_11_2 0
Gamma_11_3 0
Gamma_11_4 0
Gamma_11_5 0
Gamma_11_6 0
Gamma_11_7 0
Gamma_11_8 0
Gamma_11_9 0
Gamma_11_10 -5.9816282158651179e-01
Gamma_11_11 8.0563405990141246e-01
Gamma_11_12 0
Gamma_11_13 0
Gamma_11_14 0
Gamma_11_15 0
Gamma_11_16 0
Gamma_11_17 0
Gamma_12_0 0
Gamma_12_1 0
Gamma_12_2 0
Gamma_12_3 0
Gamma_12_4 0
Gamma_12_5 0
Gamma_12_6 0
Gamma_12_7 0
Gamma_12_8 -9.0659536068180113e-01
Gamma_12_9 0
Gamma_12_10 0
Gamma_12_11 0
Gamma_12_12 1.0649456791259362e+00
Gamma_12_13 0
Gamma_12_14 0
Gamma_12_15 0
Gamma_12_16 0
Gamma_12_17 0
Gamma_13_0 0
Gamma_13_1 0
Gamma_13_2 0
Gamma_13_3 0
Gamma_13_4 0
Gamma_13_5 8.2714388727178589e-01
Gamma_13_6 0
Gamma_13_7 0
Gamma_13_8 0
Gamma_13_9 0
Gamma_13_10 0
Gamma_13_11 0
Gamma_13_12 0
Gamma_13_13 1.0177398507676019e+00
Gamma_13_14 0
Gamma_13_15 0
Gamma_13_16 0
Gamma_13_17 0
Gamma_14_0 0
Gamma_14_1 0
Gamma_14_2 0
Gamma_14_3 0
Gamma_14_4 0
Gamma_14_5 0
Gamma_14_6 0
Gamma_14_7 0
Gamma_14_8 0
Gamma_14_9 0
Gamma_14_10 0
Gamma_14_11 0
Gamma_14_12 0
Gamma_14_13 0
Gamma_14_14 1.3520399030039696e+00
Gamma_14_15 0
Gamma_14_16 0
Gamma_14_17 0
Gamma_15_0 0
Gamma_15_1 0
Gamma_15_2 0
Gamma_15_3 0
Gamma_15_4 0
Gamma_15_5 0
Gamma_15_6 0
Gamma_15_7 0
Gamma_15_8 0
Gamma_15_9 0
Gamma_15_10 0
Gamma_15_11 0
Gamma_15_12 0
Gamma_15_13 0
Gamma_15_14 0
Gamma_15_15 8.0857912412248423e-01
Gamma_15_16 0
Gamma_15_17 0
Gamma_16_0 0
Gamma_16_1 0
Gamma_16_2 0
Gamma_16_3 0
Gamma_16_4 0
Gamma_16_5 0
Gamma_16_6 0
Gamma_16_7 0
Gamma_16_8 0
Gamma_16_9 0
Gamma_16_10 0
Gamma_16_11 0
Gamma_16_12 0
Gamma_16_13 0
Gamma_16_14 0
Gamma_16_15 -7.4102053723128392e-01
Gamma_16_16 9.7382060143848470e-01
Gamma_16_17 0
Gamma_17_0 0
Gamma_17_1 0
Gamma_17_2 0
Gamma_17_3 0
Gamma_17_4 0
Gamma_17_5 0
Gamma_17_6 0
Gamma_17_7 0
Gamma_17_8 0
Gamma_17_9 0
Gamma_17_10 0
Gamma_17_11 -5.1866126034270221e-01
Gamma_17_12 -6.5964346093143778e-01
Gamma_17_13 0
Gamma_17_14 6.1658312069346433e-01
Gamma_17_15 0
Gamma_17_16 -7.3538510554161329e-01
Gamma_17_17 8.2487512373520555e-01
psi_0 0
psi_1 4
psi_2 4
psi_3 3
psi_4 3
psi_5 1
psi_6 0
psi_7 3
psi_8 2
psi_9 0
psi_10 2
psi_11 1
psi_12 1
psi_13 0
psi_14 1
psi_15 2
psi_16 1
psi_17 0
g_0_0 0
g_0_1 0
g_0_2 0
g_0_3 0
g_0_4 0
g_0_5 0
g_0_6 0
g_0_7 0
g_0_8 0
g_0_9 0
g_0_10 0
g_0_11 0
g_0_12 0
g_0_13 0
g_0_14 0
g_0_15 0
g_0_16 0
g_0_17 0
g_1_0 0
g_1_1 0
g_1_2 0
g_1_3 0
g_1_4 0
g_1_5 0
g_1_6 0
g_1_7 0
g_1_8 0
g_1_9 0
g_1_10 0
g_1_11 0
g_1_12 0
g_1_13 0
g_1_14 0
g_1_15 0
g_1_16 0
g_1_17 0
g_2_0 0
g_2_1 0
g_2_2 0
g_2_3 0
g_2_4 0
g_2_5 0
g_2_6 0
g_2_7 0
g_2_8 0
g_2_9 0
g_2_10 0
g_2_11 0
g_2_12 0
g_2_13 0
g_2_14 0
g_2_15 0
g_2_16 0
g_2_17 0
g_3_0 0
g_3_1 1
g_3_2 1
g_3_3 0
g_3_4 0
g_3_5 0
g_3_6 0
g_3_7 0
g_3_8 0
g_3_9 0
g_3_10 0
g_3_11 0
g_3_12 0
g_3_13 0
g_3_14 0
g_3_15 0
g_3_16 0
g_3_17 0
g_4_0 0
g_4_1 0
g_4_2 0
g_4_3 0
g_4_4 0
g_4_5 0
g_4_6 0
g_4_7 0
g_4_8 0
g_4_9 0
g_4_10 0
g_4_11 0
g_4_12 0
g_4_13 0
g_4_14 0
g_4_15 0
g_4_16 0
g_4_17 0
g_5_0 0
g_5_1 0
g_5_2 0
g_5_3 0
g_5_4 0
g_5_5 0
g_5_6 0
g_5_7 0
g_5_8 0
g_5_9 0
g_5_10 0
g_5_11 0
g_5_12 0
g_5_13 0
g_5_14 0
g_5_15 0
g_5_16 0
g_5_17 0
g_6_0 0
g_6_1 0
g_6_2 0
g_6_3 1
g_6_4 1
g_6_5 1
g_6_6 0
g_6_7 0
g_6_8 0
g_6_9 0
g_6_10 0
g_6_11 0
g_6_12 0
g_6_13 0
g_6_14 0
g_6_15 0
g_6_16 0
g_6_17 0
g_7_0 0
g_7_1 0
g_7_2 0
g_7_3 0
g_7_4 0
g_7_5 0
g_7_6 0
g_7_7 0
g_7_8 0
g_7_9 0
g_7_10 0
g_7_11 0
g_7_12 0
g_7_13 0
g_7_14 0
g_7_15 0
g_7_16 0
g_7_17 0
g_8_0 0
g_8_1 0
g_8_2 0
g_8_3 1
g_8_4 1
g_8_5 0
g_8_6 0
g_8_7 1
g_8_8 0
g_8_9 0
g_8_10 0
g_8_11 0
g_8_12 0
g_8_13 0
g_8_14 0
g_8_15 0
g_8_16 0
g_8_17 0
g_9_0 0
g_9_1 0
g_9_2 0
g_9_3 1
g_9_4 0
g_9_5 0
g_9_6 0
g_9_7 0
g_9_8 0
g_9_9 0
g_9_10 0
g_9_11 0
g_9_12 0
g_9_13 0
g_9_14 0
g_9_15 0
g_9_16 0
g_9_17 0
g_10_0 0
g_10_1 0
g_10_2 0
g_10_3 0
g_10_4 0
g_10_5 0
g_10_6 0
g_10_7 0
g_10_8 0
g_10_9 0
g_10_10 0
g_10_11 0
g_10_12 0
g_10_13 0
g_10_14 0
g_10_15 0
g_10_16 0
g_10_17 0
g_11_0 0
g_11_1 0
g_11_2 0
g_11_3 0
g_11_4 0
g_11_5 0
g_11_6 0
g_11_7 0
g_11_8 0
g_11_9 0
g_11_10 1
g_11_11 0
g_11_12 0
g_11_13 0
g_11_14 0
g_11_15 0
g_11_16 0
g_11_17 0
g_12_0 0
g_12_1 0
g_12_2 0
g_12_3 0
g_12_4 0
g_12_5 0
g_12_6 0
g_12_7 0
g_12_8 1
g_12_9 0
g_12_10 0
g_12_11 0
g_12_12 0
g_12_13 0
g_12_14 0
g_12_15 0
g_12_16 0
g_12_17 0
g_13_0 0
g_13_1 0
g_13_2 0
g_13_3 0
g_13_4 0
g_13_5 1
g_13_6 0
g_13_7 0
g_13_8 0
g_13_9 0
g_13_10 0
g_13_11 0
g_13_12 0
g_13_13 0
g_13_14 0
g_13_15 0
g_13_16 0
g_13_17 0
g_14_0 0
g_14_1 0
g_14_2 0
g_14_3 0
g_14_4 0
g_14_5 0
g_14_6 0
g_14_7 0
g_14_8 0
g_14_9 0
g_14_10 0
g_14_11 0
g_14_12 0
g_14_13 0
g_14_14 0
g_14_15 0
g_14_16 0
g_14_17 0
g_15_0 0
g_15_1 0
g_15_2 0
g_15_3 0
g_15_4 0
g_15_5 0
g_15_6 0
g_15_7 0
g_15_8 0
g_15_9 0
g_15_10 0
g_15_11 0
g_15_12 0
g_15_13 0
g_15_14 0
g_15_15 0
g_15_16 0
g_15_17 0
g_16_0 0
g_16_1 0
g_16_2 0
g_16_3 0
g_16_4 0
g_16_5 0
g_16_6 0
g_16_7 0
g_16_8 0
g_16_9 0
g_16_10 0
g_16_11 0
g_16_12 0
g_16_13 0
g_16_14 0
g_16_15 1
g_16_16 0
g_16_17 0
g_17_0 0
g_17_1 0
g_17_2 0
g_17_3 0
g_17_4 0
g_17_5 0
g_17_6 0
g_17_7 0
g_17_8 0
g_17_9 0
g_17_10 0
g_17_11 1
g_17_12 1
g_17_13 0
g_17_14 1
g_17_15 0
g_17_16 1
g_17_17 0
T_0 4.2320875565879135e-01
T_1 -6.4867224801710677e-01
T_2 -1.0655482944665096e-01
T_3 4.9732116347321664e-01
T_4 3.5681209526686075e-02
T_5 4.2171872758370910e-01
T_6 0.278737864530882
T_7 4.7357951995951453e-01
T_8 4.2025369431365789e-01
T_9 0.352526666307142
T_10 -1.0577254282026161e-02
T_11 4.3225131909443348e-01
T_12 -1.2584758469002111e-01
T_13 -3.5168672251657540e-02
T_14 -6.0322898248286094e-01
T_15 4.2495347883908607e-01
T_16 5.3056359478020454e-02
T_17 3.8504653854752746e-01
